HUN,8,6,384
1,21,2,13,0,25,5,29,3,7,4,28
1,26,0,28,2,5,4,20,3,3,5,23
2,12,1,22,0,25,4,20,5,17,3,4
0,17,2,11,1,11,5,30,3,29,4,8
1,5,2,20,0,26,3,19,4,30,5,13
2,26,0,3,1,28,3,8,5,24,4,29
2,8,1,23,0,9,4,21,5,20,3,10
2,24,1,28,0,1,3,28,4,12,5,24
